c " random instance " 
p edges 200 2155
e 1 2
e 1 10
e 1 18
e 1 30
e 1 48
e 1 67
e 1 72
e 1 89
e 1 92
e 1 103
e 1 115
e 1 125
e 1 132
e 1 140
e 1 142
e 1 147
e 1 157
e 1 164
e 1 166
e 1 170
e 1 176
e 1 188
e 1 195
e 1 199
e 2 17
e 2 20
e 2 29
e 2 45
e 2 60
e 2 65
e 2 66
e 2 68
e 2 75
e 2 87
e 2 91
e 2 104
e 2 108
e 2 119
e 2 122
e 2 124
e 2 134
e 2 135
e 2 138
e 2 147
e 2 152
e 2 173
e 2 175
e 2 198
e 3 27
e 3 31
e 3 36
e 3 44
e 3 48
e 3 52
e 3 54
e 3 70
e 3 72
e 3 74
e 3 75
e 3 96
e 3 100
e 3 109
e 3 111
e 3 116
e 3 126
e 3 170
e 3 171
e 3 191
e 3 192
e 3 193
e 4 5
e 4 26
e 4 37
e 4 46
e 4 53
e 4 56
e 4 73
e 4 86
e 4 94
e 4 103
e 4 104
e 4 105
e 4 107
e 4 108
e 4 126
e 4 147
e 4 164
e 4 179
e 4 181
e 4 196
e 4 199
e 4 200
e 5 13
e 5 20
e 5 21
e 5 33
e 5 34
e 5 40
e 5 54
e 5 57
e 5 62
e 5 67
e 5 72
e 5 74
e 5 75
e 5 86
e 5 89
e 5 110
e 5 112
e 5 114
e 5 117
e 5 128
e 5 131
e 5 141
e 5 145
e 5 156
e 5 160
e 5 180
e 5 181
e 5 192
e 5 195
e 5 197
e 6 7
e 6 24
e 6 68
e 6 71
e 6 79
e 6 92
e 6 93
e 6 95
e 6 107
e 6 131
e 6 140
e 6 148
e 6 150
e 6 173
e 6 174
e 6 186
e 7 18
e 7 40
e 7 47
e 7 62
e 7 72
e 7 87
e 7 89
e 7 100
e 7 104
e 7 113
e 7 129
e 7 134
e 7 145
e 7 182
e 7 187
e 7 192
e 8 15
e 8 24
e 8 32
e 8 38
e 8 49
e 8 55
e 8 56
e 8 60
e 8 65
e 8 68
e 8 82
e 8 100
e 8 115
e 8 121
e 8 126
e 8 133
e 8 145
e 8 170
e 8 177
e 8 181
e 8 199
e 9 28
e 9 29
e 9 31
e 9 44
e 9 61
e 9 64
e 9 70
e 9 73
e 9 101
e 9 119
e 9 130
e 9 135
e 9 143
e 9 170
e 9 188
e 9 193
e 10 12
e 10 14
e 10 25
e 10 29
e 10 37
e 10 40
e 10 75
e 10 76
e 10 77
e 10 82
e 10 83
e 10 93
e 10 105
e 10 106
e 10 109
e 10 117
e 10 120
e 10 136
e 10 144
e 10 171
e 10 176
e 10 179
e 10 193
e 10 200
e 11 19
e 11 22
e 11 29
e 11 40
e 11 46
e 11 50
e 11 55
e 11 60
e 11 66
e 11 69
e 11 94
e 11 101
e 11 119
e 11 125
e 11 128
e 11 133
e 11 140
e 11 153
e 11 155
e 11 160
e 11 170
e 11 183
e 12 18
e 12 24
e 12 36
e 12 82
e 12 86
e 12 92
e 12 107
e 12 133
e 12 151
e 12 152
e 12 162
e 12 165
e 12 171
e 12 175
e 12 181
e 12 183
e 12 185
e 13 28
e 13 30
e 13 37
e 13 49
e 13 54
e 13 69
e 13 77
e 13 78
e 13 80
e 13 91
e 13 92
e 13 104
e 13 122
e 13 142
e 13 156
e 13 171
e 13 188
e 14 16
e 14 49
e 14 69
e 14 106
e 14 130
e 14 135
e 14 153
e 14 157
e 14 166
e 14 171
e 14 173
e 14 186
e 14 187
e 14 195
e 15 29
e 15 30
e 15 37
e 15 46
e 15 51
e 15 52
e 15 55
e 15 60
e 15 66
e 15 74
e 15 75
e 15 89
e 15 107
e 15 112
e 15 113
e 15 134
e 15 157
e 15 160
e 15 168
e 15 171
e 15 176
e 15 199
e 16 18
e 16 24
e 16 32
e 16 49
e 16 66
e 16 73
e 16 74
e 16 84
e 16 89
e 16 91
e 16 92
e 16 102
e 16 104
e 16 105
e 16 107
e 16 115
e 16 139
e 16 143
e 16 150
e 16 154
e 16 155
e 16 172
e 16 178
e 16 179
e 16 185
e 16 194
e 17 18
e 17 23
e 17 27
e 17 33
e 17 39
e 17 45
e 17 47
e 17 49
e 17 51
e 17 63
e 17 71
e 17 86
e 17 95
e 17 102
e 17 103
e 17 109
e 17 113
e 17 115
e 17 136
e 17 141
e 17 174
e 17 178
e 17 186
e 17 200
e 18 28
e 18 31
e 18 33
e 18 56
e 18 63
e 18 64
e 18 67
e 18 75
e 18 82
e 18 108
e 18 118
e 18 119
e 18 121
e 18 125
e 18 130
e 18 131
e 18 151
e 18 158
e 18 168
e 18 169
e 18 174
e 18 180
e 18 186
e 18 198
e 18 199
e 19 23
e 19 29
e 19 40
e 19 55
e 19 56
e 19 63
e 19 71
e 19 72
e 19 73
e 19 84
e 19 132
e 19 139
e 19 151
e 19 152
e 19 178
e 20 48
e 20 49
e 20 54
e 20 64
e 20 65
e 20 78
e 20 84
e 20 94
e 20 104
e 20 134
e 20 136
e 20 140
e 20 152
e 20 155
e 20 160
e 20 171
e 20 172
e 20 184
e 20 187
e 21 27
e 21 41
e 21 49
e 21 71
e 21 80
e 21 81
e 21 86
e 21 88
e 21 91
e 21 95
e 21 96
e 21 112
e 21 121
e 21 122
e 21 142
e 21 153
e 21 172
e 21 177
e 21 187
e 21 198
e 22 23
e 22 28
e 22 30
e 22 33
e 22 35
e 22 36
e 22 41
e 22 53
e 22 72
e 22 81
e 22 89
e 22 90
e 22 109
e 22 130
e 22 134
e 22 136
e 22 137
e 22 155
e 22 165
e 22 172
e 22 173
e 22 180
e 22 183
e 22 193
e 22 199
e 23 28
e 23 42
e 23 44
e 23 71
e 23 81
e 23 113
e 23 115
e 23 138
e 23 149
e 23 156
e 23 166
e 23 169
e 23 190
e 23 198
e 24 38
e 24 40
e 24 55
e 24 58
e 24 82
e 24 99
e 24 129
e 24 132
e 24 143
e 24 151
e 24 166
e 24 168
e 24 178
e 24 187
e 24 188
e 24 195
e 25 30
e 25 34
e 25 35
e 25 38
e 25 40
e 25 45
e 25 53
e 25 62
e 25 83
e 25 107
e 25 116
e 25 117
e 25 120
e 25 121
e 25 122
e 25 129
e 25 136
e 25 147
e 25 162
e 25 172
e 25 173
e 25 174
e 25 179
e 26 29
e 26 33
e 26 38
e 26 51
e 26 70
e 26 75
e 26 92
e 26 93
e 26 99
e 26 101
e 26 111
e 26 113
e 26 118
e 26 148
e 26 156
e 26 162
e 26 164
e 26 168
e 26 178
e 26 185
e 26 195
e 27 31
e 27 35
e 27 36
e 27 50
e 27 59
e 27 60
e 27 91
e 27 96
e 27 97
e 27 108
e 27 112
e 27 113
e 27 131
e 27 149
e 27 152
e 27 169
e 27 176
e 27 181
e 27 186
e 28 33
e 28 37
e 28 49
e 28 51
e 28 74
e 28 97
e 28 100
e 28 104
e 28 122
e 28 125
e 28 129
e 28 141
e 28 157
e 28 164
e 28 165
e 28 173
e 28 187
e 29 47
e 29 81
e 29 89
e 29 91
e 29 101
e 29 109
e 29 112
e 29 151
e 29 153
e 29 161
e 29 164
e 29 166
e 29 186
e 29 193
e 29 197
e 30 45
e 30 51
e 30 56
e 30 77
e 30 84
e 30 86
e 30 88
e 30 91
e 30 104
e 30 109
e 30 120
e 30 121
e 30 125
e 30 138
e 30 153
e 30 158
e 30 182
e 30 190
e 31 32
e 31 35
e 31 36
e 31 58
e 31 65
e 31 70
e 31 87
e 31 88
e 31 89
e 31 102
e 31 105
e 31 128
e 31 132
e 31 140
e 31 168
e 31 181
e 31 189
e 31 199
e 32 38
e 32 47
e 32 50
e 32 52
e 32 86
e 32 114
e 32 131
e 32 132
e 32 133
e 32 135
e 32 141
e 32 142
e 32 175
e 32 181
e 32 187
e 32 192
e 32 200
e 33 55
e 33 57
e 33 64
e 33 68
e 33 73
e 33 77
e 33 80
e 33 85
e 33 87
e 33 97
e 33 121
e 33 127
e 33 139
e 33 143
e 33 150
e 33 179
e 33 188
e 33 192
e 33 200
e 34 50
e 34 51
e 34 54
e 34 62
e 34 65
e 34 76
e 34 78
e 34 86
e 34 93
e 34 96
e 34 98
e 34 110
e 34 111
e 34 140
e 34 152
e 34 154
e 34 156
e 34 158
e 34 167
e 34 175
e 34 179
e 34 187
e 35 37
e 35 49
e 35 50
e 35 54
e 35 57
e 35 86
e 35 91
e 35 94
e 35 109
e 35 113
e 35 120
e 35 122
e 35 136
e 35 141
e 35 151
e 35 156
e 35 160
e 35 163
e 35 164
e 35 188
e 35 191
e 35 192
e 36 64
e 36 73
e 36 82
e 36 93
e 36 95
e 36 99
e 36 133
e 36 152
e 36 156
e 36 177
e 36 187
e 36 196
e 37 38
e 37 40
e 37 50
e 37 99
e 37 112
e 37 122
e 37 137
e 37 153
e 37 162
e 37 165
e 37 170
e 37 176
e 37 177
e 37 180
e 37 181
e 37 184
e 37 191
e 37 197
e 38 44
e 38 48
e 38 58
e 38 70
e 38 72
e 38 77
e 38 106
e 38 110
e 38 119
e 38 133
e 38 139
e 38 156
e 38 163
e 38 178
e 38 196
e 39 47
e 39 63
e 39 70
e 39 78
e 39 115
e 39 122
e 39 128
e 39 131
e 39 132
e 39 136
e 39 152
e 39 161
e 39 163
e 39 179
e 39 184
e 39 190
e 39 196
e 39 198
e 39 200
e 40 53
e 40 76
e 40 83
e 40 86
e 40 89
e 40 102
e 40 105
e 40 113
e 40 121
e 40 122
e 40 142
e 40 152
e 40 181
e 40 188
e 40 189
e 40 191
e 41 42
e 41 44
e 41 46
e 41 50
e 41 51
e 41 57
e 41 73
e 41 74
e 41 76
e 41 81
e 41 87
e 41 116
e 41 132
e 41 151
e 41 159
e 41 171
e 41 175
e 41 180
e 41 182
e 42 47
e 42 57
e 42 65
e 42 70
e 42 75
e 42 92
e 42 93
e 42 103
e 42 109
e 42 114
e 42 117
e 42 127
e 42 135
e 42 138
e 42 172
e 42 188
e 42 200
e 43 56
e 43 60
e 43 62
e 43 69
e 43 86
e 43 98
e 43 108
e 43 159
e 43 160
e 43 169
e 43 192
e 43 197
e 43 198
e 44 45
e 44 52
e 44 62
e 44 68
e 44 72
e 44 95
e 44 96
e 44 109
e 44 113
e 44 118
e 44 127
e 44 141
e 44 165
e 44 182
e 44 199
e 45 56
e 45 65
e 45 88
e 45 114
e 45 153
e 45 176
e 45 192
e 46 52
e 46 61
e 46 80
e 46 84
e 46 93
e 46 97
e 46 98
e 46 103
e 46 108
e 46 113
e 46 134
e 46 141
e 46 157
e 46 172
e 46 175
e 46 185
e 47 50
e 47 58
e 47 68
e 47 78
e 47 96
e 47 103
e 47 106
e 47 117
e 47 127
e 47 136
e 47 154
e 47 165
e 47 179
e 47 180
e 47 187
e 48 72
e 48 85
e 48 91
e 48 92
e 48 94
e 48 98
e 48 103
e 48 105
e 48 107
e 48 113
e 48 159
e 48 171
e 48 183
e 48 193
e 48 194
e 49 52
e 49 56
e 49 68
e 49 74
e 49 84
e 49 87
e 49 88
e 49 91
e 49 99
e 49 106
e 49 139
e 49 154
e 49 159
e 49 176
e 49 178
e 49 180
e 49 183
e 49 187
e 50 64
e 50 65
e 50 70
e 50 97
e 50 100
e 50 108
e 50 115
e 50 116
e 50 124
e 50 126
e 50 144
e 50 152
e 50 165
e 50 171
e 51 62
e 51 71
e 51 77
e 51 88
e 51 96
e 51 105
e 51 109
e 51 116
e 51 121
e 51 136
e 51 167
e 51 169
e 51 174
e 51 183
e 51 189
e 52 54
e 52 55
e 52 61
e 52 73
e 52 74
e 52 78
e 52 81
e 52 83
e 52 109
e 52 121
e 52 164
e 52 180
e 53 55
e 53 59
e 53 61
e 53 69
e 53 73
e 53 88
e 53 93
e 53 95
e 53 137
e 53 142
e 53 147
e 53 150
e 53 155
e 53 156
e 53 166
e 53 170
e 53 193
e 53 196
e 53 200
e 54 70
e 54 74
e 54 80
e 54 93
e 54 108
e 54 115
e 54 130
e 54 141
e 54 145
e 54 147
e 54 153
e 54 158
e 54 164
e 54 168
e 54 177
e 54 178
e 54 191
e 54 194
e 55 58
e 55 70
e 55 80
e 55 85
e 55 97
e 55 109
e 55 115
e 55 128
e 55 136
e 55 139
e 55 140
e 55 165
e 55 174
e 55 176
e 56 88
e 56 102
e 56 113
e 56 119
e 56 122
e 56 144
e 56 151
e 56 163
e 56 165
e 56 167
e 56 173
e 56 174
e 56 176
e 56 180
e 56 181
e 56 191
e 57 66
e 57 85
e 57 88
e 57 90
e 57 106
e 57 107
e 57 117
e 57 128
e 57 138
e 57 151
e 57 163
e 57 167
e 57 177
e 57 178
e 57 187
e 57 188
e 57 194
e 57 198
e 57 199
e 58 59
e 58 90
e 58 93
e 58 104
e 58 109
e 58 110
e 58 116
e 58 131
e 58 141
e 58 152
e 58 160
e 58 162
e 58 164
e 58 174
e 58 182
e 58 196
e 59 64
e 59 67
e 59 81
e 59 90
e 59 98
e 59 112
e 59 117
e 59 125
e 59 127
e 59 131
e 59 134
e 59 137
e 59 139
e 59 160
e 59 172
e 59 187
e 59 200
e 60 69
e 60 71
e 60 74
e 60 78
e 60 87
e 60 93
e 60 98
e 60 99
e 60 100
e 60 128
e 60 136
e 60 152
e 60 158
e 60 162
e 60 166
e 60 167
e 60 173
e 60 176
e 60 184
e 60 188
e 61 67
e 61 70
e 61 78
e 61 89
e 61 106
e 61 110
e 61 134
e 61 138
e 61 139
e 61 141
e 61 142
e 61 163
e 61 166
e 61 171
e 61 179
e 62 73
e 62 92
e 62 103
e 62 116
e 62 142
e 62 160
e 62 176
e 62 195
e 63 65
e 63 72
e 63 78
e 63 87
e 63 95
e 63 97
e 63 100
e 63 118
e 63 120
e 63 130
e 63 138
e 63 157
e 63 159
e 63 178
e 63 183
e 63 189
e 63 193
e 64 65
e 64 79
e 64 95
e 64 120
e 64 128
e 64 138
e 64 149
e 64 150
e 64 151
e 64 155
e 64 175
e 64 178
e 64 180
e 64 197
e 65 69
e 65 86
e 65 89
e 65 93
e 65 104
e 65 111
e 65 116
e 65 125
e 65 129
e 65 131
e 65 150
e 65 169
e 65 177
e 66 71
e 66 78
e 66 89
e 66 102
e 66 105
e 66 122
e 66 124
e 66 137
e 66 144
e 66 145
e 66 156
e 66 172
e 66 175
e 66 183
e 66 195
e 67 68
e 67 71
e 67 73
e 67 76
e 67 87
e 67 98
e 67 106
e 67 112
e 67 117
e 67 127
e 67 131
e 67 137
e 67 143
e 67 148
e 67 159
e 67 161
e 67 163
e 67 169
e 67 170
e 67 174
e 67 179
e 67 182
e 67 189
e 67 193
e 67 199
e 68 81
e 68 86
e 68 91
e 68 109
e 68 117
e 68 122
e 68 125
e 68 131
e 68 138
e 68 142
e 68 144
e 68 153
e 68 159
e 68 166
e 68 171
e 68 190
e 69 74
e 69 79
e 69 80
e 69 93
e 69 100
e 69 102
e 69 112
e 69 115
e 69 125
e 69 137
e 69 150
e 69 153
e 69 158
e 69 159
e 69 179
e 69 185
e 69 195
e 70 74
e 70 81
e 70 91
e 70 93
e 70 97
e 70 109
e 70 115
e 70 142
e 70 153
e 70 154
e 70 160
e 70 163
e 70 170
e 70 178
e 70 194
e 71 94
e 71 145
e 71 147
e 71 148
e 71 149
e 71 152
e 71 170
e 71 190
e 71 197
e 72 75
e 72 82
e 72 99
e 72 123
e 72 143
e 72 147
e 72 152
e 72 165
e 72 167
e 72 177
e 72 181
e 72 195
e 73 97
e 73 98
e 73 105
e 73 122
e 73 129
e 73 137
e 73 139
e 73 152
e 73 157
e 73 168
e 73 169
e 74 80
e 74 81
e 74 116
e 74 119
e 74 130
e 74 141
e 74 177
e 74 180
e 74 183
e 74 188
e 74 189
e 74 194
e 75 76
e 75 77
e 75 79
e 75 89
e 75 92
e 75 97
e 75 99
e 75 119
e 75 121
e 75 168
e 75 192
e 75 196
e 75 200
e 76 81
e 76 84
e 76 87
e 76 91
e 76 93
e 76 97
e 76 144
e 76 145
e 76 155
e 76 157
e 76 181
e 77 80
e 77 91
e 77 99
e 77 110
e 77 121
e 77 125
e 77 141
e 77 160
e 77 183
e 77 186
e 77 193
e 77 199
e 78 89
e 78 103
e 78 109
e 78 124
e 78 127
e 78 140
e 78 166
e 78 182
e 78 187
e 78 192
e 78 193
e 78 197
e 79 80
e 79 85
e 79 98
e 79 117
e 79 121
e 79 128
e 79 157
e 79 166
e 79 174
e 79 179
e 79 180
e 79 185
e 79 187
e 79 188
e 79 190
e 79 199
e 80 92
e 80 97
e 80 113
e 80 125
e 80 126
e 80 159
e 80 161
e 80 186
e 80 187
e 80 198
e 81 91
e 81 99
e 81 134
e 81 147
e 81 157
e 81 158
e 81 160
e 81 191
e 82 90
e 82 95
e 82 101
e 82 103
e 82 118
e 82 132
e 82 133
e 82 139
e 82 144
e 82 159
e 82 169
e 82 175
e 82 189
e 82 196
e 82 198
e 83 86
e 83 100
e 83 108
e 83 125
e 83 151
e 83 154
e 83 156
e 83 159
e 83 161
e 83 168
e 83 172
e 83 176
e 84 101
e 84 106
e 84 111
e 84 113
e 84 121
e 84 144
e 84 145
e 84 172
e 84 190
e 84 198
e 85 86
e 85 94
e 85 100
e 85 103
e 85 109
e 85 111
e 85 113
e 85 115
e 85 153
e 85 176
e 85 183
e 86 97
e 86 100
e 86 105
e 86 118
e 86 121
e 86 135
e 86 145
e 86 146
e 86 155
e 86 158
e 86 159
e 86 167
e 86 179
e 86 194
e 87 88
e 87 94
e 87 100
e 87 104
e 87 117
e 87 122
e 87 163
e 87 181
e 87 191
e 87 192
e 87 193
e 88 95
e 88 98
e 88 99
e 88 101
e 88 108
e 88 130
e 88 132
e 88 135
e 88 138
e 88 145
e 88 155
e 88 159
e 88 162
e 88 163
e 88 165
e 88 189
e 88 196
e 88 197
e 89 96
e 89 99
e 89 100
e 89 122
e 89 144
e 89 150
e 89 158
e 89 163
e 89 172
e 89 177
e 89 183
e 89 187
e 89 190
e 89 196
e 90 104
e 90 105
e 90 109
e 90 119
e 90 147
e 90 157
e 90 161
e 90 165
e 90 168
e 90 197
e 91 121
e 91 131
e 91 141
e 91 142
e 91 149
e 91 158
e 91 161
e 91 164
e 91 182
e 91 184
e 91 185
e 91 192
e 91 194
e 91 196
e 92 103
e 92 120
e 92 132
e 92 133
e 92 150
e 92 177
e 92 181
e 92 182
e 93 97
e 93 102
e 93 113
e 93 119
e 93 129
e 93 136
e 93 139
e 93 144
e 93 177
e 93 181
e 93 194
e 93 200
e 94 100
e 94 101
e 94 105
e 94 123
e 94 149
e 94 155
e 94 166
e 94 172
e 94 179
e 94 182
e 95 101
e 95 119
e 95 121
e 95 130
e 95 139
e 95 141
e 95 142
e 95 150
e 95 163
e 95 168
e 95 182
e 95 187
e 95 195
e 95 199
e 96 116
e 96 123
e 96 134
e 96 139
e 96 140
e 96 147
e 96 148
e 96 153
e 96 156
e 96 170
e 96 175
e 96 179
e 96 180
e 96 182
e 96 184
e 97 104
e 97 119
e 97 126
e 97 128
e 97 141
e 97 188
e 97 193
e 98 106
e 98 119
e 98 128
e 98 131
e 98 159
e 98 164
e 98 170
e 98 171
e 98 172
e 98 189
e 98 191
e 99 162
e 99 171
e 99 180
e 99 189
e 99 192
e 100 105
e 100 117
e 100 120
e 100 122
e 100 136
e 100 178
e 100 179
e 100 186
e 100 192
e 101 112
e 101 119
e 101 120
e 101 136
e 101 139
e 101 144
e 101 146
e 101 149
e 101 169
e 101 181
e 101 200
e 102 104
e 102 127
e 102 133
e 102 135
e 102 145
e 102 165
e 102 179
e 103 122
e 103 133
e 103 137
e 103 146
e 103 153
e 103 156
e 103 171
e 103 174
e 103 177
e 103 191
e 103 192
e 104 122
e 104 127
e 104 131
e 104 133
e 104 135
e 104 144
e 104 163
e 104 171
e 104 174
e 104 182
e 104 184
e 105 106
e 105 114
e 105 128
e 105 138
e 105 140
e 105 168
e 105 171
e 105 174
e 105 180
e 106 107
e 106 109
e 106 113
e 106 128
e 106 134
e 106 151
e 106 159
e 106 164
e 106 165
e 106 167
e 106 173
e 106 184
e 106 193
e 106 196
e 107 115
e 107 121
e 107 122
e 107 138
e 107 139
e 107 141
e 107 157
e 107 176
e 107 186
e 107 188
e 107 194
e 108 112
e 108 113
e 108 127
e 108 128
e 108 136
e 108 144
e 108 157
e 108 160
e 108 172
e 108 174
e 108 178
e 108 180
e 108 187
e 108 198
e 109 119
e 109 130
e 109 149
e 109 151
e 109 162
e 109 170
e 109 173
e 109 180
e 109 182
e 109 198
e 110 116
e 110 129
e 110 135
e 110 159
e 110 165
e 110 178
e 111 121
e 111 128
e 111 134
e 111 140
e 111 149
e 111 161
e 111 165
e 111 166
e 111 180
e 111 181
e 111 182
e 111 187
e 111 192
e 111 194
e 111 195
e 111 198
e 112 113
e 112 128
e 112 138
e 112 152
e 112 169
e 113 115
e 113 134
e 113 139
e 113 141
e 113 142
e 113 153
e 113 157
e 113 168
e 113 170
e 113 189
e 114 133
e 114 137
e 114 138
e 114 142
e 114 164
e 114 170
e 114 172
e 114 176
e 114 177
e 114 187
e 115 129
e 115 132
e 115 141
e 115 163
e 115 173
e 115 174
e 115 198
e 116 120
e 116 121
e 116 126
e 116 136
e 116 162
e 116 164
e 116 166
e 116 168
e 116 172
e 116 178
e 116 185
e 116 191
e 116 192
e 116 193
e 116 199
e 117 133
e 117 138
e 117 143
e 117 148
e 117 153
e 117 159
e 117 161
e 117 167
e 117 172
e 117 175
e 117 178
e 117 181
e 117 187
e 118 125
e 118 175
e 118 178
e 118 179
e 118 194
e 119 124
e 119 136
e 119 143
e 119 147
e 119 179
e 119 197
e 119 198
e 120 122
e 120 132
e 120 136
e 120 145
e 120 149
e 120 161
e 120 164
e 120 166
e 120 170
e 120 195
e 120 198
e 120 199
e 121 122
e 121 125
e 121 135
e 121 138
e 121 141
e 121 143
e 121 149
e 121 154
e 121 157
e 121 164
e 121 168
e 121 182
e 121 184
e 121 188
e 121 194
e 121 197
e 122 125
e 122 140
e 122 151
e 122 171
e 122 178
e 122 181
e 123 135
e 123 138
e 123 140
e 123 142
e 123 145
e 123 161
e 123 169
e 123 190
e 123 195
e 123 196
e 124 143
e 124 152
e 124 166
e 124 171
e 124 172
e 124 185
e 124 187
e 125 138
e 125 147
e 125 163
e 125 177
e 125 181
e 125 182
e 125 187
e 125 195
e 126 131
e 126 132
e 126 134
e 126 156
e 126 159
e 126 163
e 126 192
e 126 196
e 127 132
e 127 137
e 127 142
e 127 146
e 127 164
e 127 169
e 127 184
e 127 187
e 128 157
e 128 159
e 128 168
e 128 169
e 128 199
e 129 161
e 130 151
e 130 153
e 130 159
e 130 163
e 130 171
e 130 178
e 130 189
e 130 191
e 130 192
e 130 197
e 131 139
e 131 148
e 131 157
e 131 159
e 131 162
e 131 179
e 131 181
e 131 190
e 131 194
e 131 199
e 132 133
e 132 145
e 132 149
e 132 153
e 132 154
e 132 157
e 132 158
e 132 164
e 132 180
e 132 182
e 132 184
e 132 189
e 132 194
e 133 135
e 133 140
e 133 142
e 133 175
e 133 190
e 133 197
e 133 198
e 133 199
e 134 135
e 134 137
e 134 141
e 134 144
e 134 151
e 134 157
e 134 159
e 134 183
e 134 192
e 135 139
e 135 141
e 135 148
e 135 162
e 135 174
e 135 176
e 135 196
e 135 198
e 136 137
e 136 139
e 136 141
e 136 148
e 136 154
e 136 161
e 136 167
e 136 170
e 136 177
e 136 179
e 136 180
e 136 185
e 136 199
e 136 200
e 137 138
e 137 139
e 137 142
e 137 147
e 137 164
e 137 176
e 137 180
e 137 191
e 137 194
e 137 199
e 138 140
e 138 160
e 138 167
e 138 173
e 138 186
e 138 192
e 138 194
e 139 158
e 139 165
e 139 166
e 139 170
e 139 184
e 139 187
e 140 157
e 140 167
e 140 171
e 140 172
e 140 178
e 140 193
e 141 143
e 141 152
e 141 176
e 141 183
e 141 195
e 141 198
e 142 162
e 142 178
e 142 180
e 142 185
e 142 193
e 142 195
e 142 199
e 143 147
e 143 158
e 143 161
e 143 163
e 143 166
e 143 169
e 143 181
e 143 186
e 143 194
e 143 198
e 144 148
e 144 154
e 144 156
e 144 159
e 144 160
e 144 161
e 144 170
e 144 182
e 144 183
e 144 191
e 144 198
e 145 146
e 145 156
e 145 160
e 145 162
e 145 173
e 145 183
e 145 186
e 145 187
e 145 190
e 145 191
e 146 153
e 146 172
e 146 192
e 146 199
e 147 154
e 147 186
e 148 149
e 148 163
e 148 166
e 148 175
e 148 180
e 149 152
e 149 159
e 149 166
e 149 171
e 149 184
e 149 186
e 149 189
e 151 153
e 151 163
e 151 185
e 151 187
e 151 189
e 151 194
e 152 168
e 152 186
e 153 158
e 153 178
e 153 180
e 153 181
e 153 188
e 153 190
e 153 195
e 154 165
e 154 170
e 154 181
e 154 189
e 154 199
e 155 160
e 155 166
e 155 183
e 155 187
e 155 188
e 156 162
e 156 181
e 156 183
e 156 197
e 156 200
e 157 170
e 157 174
e 157 176
e 157 185
e 157 186
e 158 169
e 158 170
e 158 176
e 158 181
e 158 182
e 158 183
e 158 186
e 158 189
e 158 197
e 159 160
e 159 180
e 159 184
e 159 188
e 159 194
e 159 197
e 160 162
e 160 171
e 160 175
e 160 179
e 160 184
e 160 190
e 161 168
e 161 171
e 161 176
e 161 180
e 161 188
e 161 192
e 162 165
e 162 188
e 162 195
e 163 165
e 163 177
e 163 178
e 163 180
e 164 177
e 164 190
e 164 191
e 165 169
e 165 178
e 165 180
e 166 180
e 167 174
e 167 177
e 167 178
e 167 198
e 167 199
e 168 175
e 168 178
e 168 187
e 168 192
e 169 170
e 169 179
e 169 191
e 170 171
e 170 172
e 170 178
e 170 181
e 170 189
e 171 172
e 171 181
e 171 183
e 171 197
e 172 173
e 172 182
e 172 191
e 173 190
e 173 191
e 174 197
e 176 179
e 176 194
e 177 186
e 177 187
e 178 179
e 178 189
e 181 186
e 181 187
e 181 192
e 182 187
e 182 188
e 183 185
e 183 191
e 186 197
e 187 198
e 188 198
e 194 199
e 197 199
